13 965
535 8 494 8 319 11
525 7 490 7 335 11
525 7 490 7 335 11
525 7 490 7 335 11
520 7 444 7 352 7 190 9 19 11 841 15 712 23
520 7 444 7 352 7 190 9 19 11 841 15 712 23
525 7 445 7 264 7 63 9 889 11 721 18
525 7 445 7 264 7 63 9 889 11 721 18
525 7 445 7 264 7 63 9 889 11 721 18
525 7 445 7 264 7 63 9 889 11 721 18
525 7 479 7 355 7 106 9 927 13
525 7 479 7 355 7 106 9 927 13
520 7 441 7 296 7 180 12
